c not original file ! May have been modified for weighted vertex coloring problem (edges and vertices stay the same only weights may have been moved to an other file)
p edge 269 3284
e 1 2
e 1 3
e 1 4
e 1 5
e 1 6
e 1 7
e 1 8
e 1 9
e 1 37
e 1 53
e 1 116
e 1 155
e 1 170
e 1 196
e 1 212
e 1 226
e 1 246
e 1 258
e 2 3
e 2 4
e 2 5
e 2 6
e 2 7
e 2 8
e 2 9
e 2 11
e 2 25
e 2 77
e 2 91
e 2 117
e 2 156
e 2 171
e 2 182
e 3 4
e 3 5
e 3 6
e 3 7
e 3 8
e 3 9
e 3 26
e 3 38
e 3 63
e 3 78
e 3 92
e 3 118
e 3 132
e 3 144
e 3 197
e 3 227
e 3 259
e 4 5
e 4 6
e 4 7
e 4 8
e 4 9
e 4 13
e 4 28
e 4 40
e 4 66
e 4 80
e 4 93
e 4 104
e 4 120
e 4 133
e 4 147
e 4 159
e 4 184
e 4 200
e 4 230
e 4 240
e 5 6
e 5 7
e 5 8
e 5 9
e 5 46
e 5 57
e 5 71
e 5 84
e 5 108
e 5 125
e 5 138
e 5 178
e 5 190
e 5 207
e 5 235
e 5 253
e 5 265
e 6 7
e 6 8
e 6 9
e 6 22
e 6 49
e 6 59
e 6 73
e 6 87
e 6 100
e 6 111
e 6 141
e 6 192
e 6 210
e 6 221
e 6 237
e 6 255
e 6 267
e 7 8
e 7 9
e 7 23
e 7 50
e 7 74
e 7 88
e 7 101
e 7 112
e 7 128
e 7 152
e 7 166
e 7 193
e 7 211
e 7 222
e 7 268
e 8 9
e 8 60
e 8 75
e 8 102
e 8 113
e 8 129
e 8 167
e 8 179
e 8 194
e 8 223
e 8 256
e 9 35
e 9 51
e 9 61
e 9 89
e 9 114
e 9 130
e 9 142
e 9 153
e 9 168
e 9 180
e 9 224
e 9 238
e 9 245
e 9 257
e 9 269
e 10 11
e 10 12
e 10 13
e 10 14
e 10 15
e 10 16
e 10 17
e 10 18
e 10 19
e 10 20
e 10 21
e 10 22
e 10 23
e 10 24
e 10 36
e 10 52
e 10 62
e 10 76
e 10 90
e 10 115
e 10 131
e 10 143
e 10 154
e 10 169
e 10 181
e 10 195
e 10 225
e 11 12
e 11 13
e 11 14
e 11 15
e 11 16
e 11 17
e 11 18
e 11 19
e 11 20
e 11 21
e 11 22
e 11 23
e 11 25
e 11 77
e 11 91
e 11 117
e 11 156
e 11 171
e 11 182
e 12 13
e 12 14
e 12 15
e 12 16
e 12 17
e 12 18
e 12 19
e 12 20
e 12 21
e 12 22
e 12 23
e 12 27
e 12 39
e 12 65
e 12 79
e 12 103
e 12 119
e 12 146
e 12 158
e 12 173
e 12 183
e 12 199
e 12 214
e 12 229
e 12 248
e 13 14
e 13 15
e 13 16
e 13 17
e 13 18
e 13 19
e 13 20
e 13 21
e 13 22
e 13 23
e 13 28
e 13 40
e 13 66
e 13 80
e 13 93
e 13 104
e 13 120
e 13 133
e 13 147
e 13 159
e 13 184
e 13 200
e 13 230
e 13 240
e 14 15
e 14 16
e 14 17
e 14 18
e 14 19
e 14 20
e 14 21
e 14 22
e 14 23
e 14 42
e 14 82
e 14 95
e 14 161
e 14 202
e 14 215
e 14 231
e 14 241
e 14 249
e 14 262
e 15 16
e 15 17
e 15 18
e 15 19
e 15 20
e 15 21
e 15 22
e 15 23
e 15 30
e 15 55
e 15 67
e 15 96
e 15 105
e 15 122
e 15 135
e 15 149
e 15 175
e 15 216
e 15 232
e 16 17
e 16 18
e 16 19
e 16 20
e 16 21
e 16 22
e 16 23
e 16 31
e 16 43
e 16 56
e 16 186
e 16 203
e 16 217
e 16 242
e 16 250
e 17 18
e 17 19
e 17 20
e 17 21
e 17 22
e 17 23
e 17 32
e 17 68
e 17 97
e 17 136
e 17 162
e 17 187
e 17 204
e 17 218
e 17 233
e 17 251
e 18 19
e 18 20
e 18 21
e 18 22
e 18 23
e 18 33
e 18 44
e 18 69
e 18 98
e 18 106
e 18 123
e 18 137
e 18 150
e 18 176
e 18 188
e 18 205
e 18 263
e 19 20
e 19 21
e 19 22
e 19 23
e 19 45
e 19 70
e 19 83
e 19 107
e 19 124
e 19 163
e 19 177
e 19 189
e 19 206
e 19 219
e 19 234
e 19 252
e 19 264
e 20 21
e 20 22
e 20 23
e 20 34
e 20 47
e 20 85
e 20 109
e 20 126
e 20 139
e 20 164
e 20 208
e 20 220
e 20 243
e 20 266
e 21 22
e 21 23
e 21 48
e 21 58
e 21 72
e 21 86
e 21 99
e 21 110
e 21 127
e 21 140
e 21 151
e 21 165
e 21 191
e 21 209
e 21 236
e 21 244
e 21 254
e 22 23
e 22 49
e 22 59
e 22 73
e 22 87
e 22 100
e 22 111
e 22 141
e 22 192
e 22 210
e 22 221
e 22 237
e 22 255
e 22 267
e 23 50
e 23 74
e 23 88
e 23 101
e 23 112
e 23 128
e 23 152
e 23 166
e 23 193
e 23 211
e 23 222
e 23 268
e 24 25
e 24 26
e 24 27
e 24 28
e 24 29
e 24 30
e 24 31
e 24 32
e 24 33
e 24 34
e 24 35
e 24 36
e 24 52
e 24 62
e 24 76
e 24 90
e 24 115
e 24 131
e 24 143
e 24 154
e 24 169
e 24 181
e 24 195
e 24 225
e 25 26
e 25 27
e 25 28
e 25 29
e 25 30
e 25 31
e 25 32
e 25 33
e 25 34
e 25 35
e 25 77
e 25 91
e 25 117
e 25 156
e 25 171
e 25 182
e 26 27
e 26 28
e 26 29
e 26 30
e 26 31
e 26 32
e 26 33
e 26 34
e 26 35
e 26 38
e 26 63
e 26 78
e 26 92
e 26 118
e 26 132
e 26 144
e 26 197
e 26 227
e 26 259
e 27 28
e 27 29
e 27 30
e 27 31
e 27 32
e 27 33
e 27 34
e 27 35
e 27 39
e 27 65
e 27 79
e 27 103
e 27 119
e 27 146
e 27 158
e 27 173
e 27 183
e 27 199
e 27 214
e 27 229
e 27 248
e 28 29
e 28 30
e 28 31
e 28 32
e 28 33
e 28 34
e 28 35
e 28 40
e 28 66
e 28 80
e 28 93
e 28 104
e 28 120
e 28 133
e 28 147
e 28 159
e 28 184
e 28 200
e 28 230
e 28 240
e 29 30
e 29 31
e 29 32
e 29 33
e 29 34
e 29 35
e 29 41
e 29 54
e 29 81
e 29 94
e 29 121
e 29 134
e 29 148
e 29 160
e 29 174
e 29 185
e 29 201
e 29 261
e 30 31
e 30 32
e 30 33
e 30 34
e 30 35
e 30 55
e 30 67
e 30 96
e 30 105
e 30 122
e 30 135
e 30 149
e 30 175
e 30 216
e 30 232
e 31 32
e 31 33
e 31 34
e 31 35
e 31 43
e 31 56
e 31 186
e 31 203
e 31 217
e 31 242
e 31 250
e 32 33
e 32 34
e 32 35
e 32 68
e 32 97
e 32 136
e 32 162
e 32 187
e 32 204
e 32 218
e 32 233
e 32 251
e 33 34
e 33 35
e 33 44
e 33 69
e 33 98
e 33 106
e 33 123
e 33 137
e 33 150
e 33 176
e 33 188
e 33 205
e 33 263
e 34 35
e 34 47
e 34 85
e 34 109
e 34 126
e 34 139
e 34 164
e 34 208
e 34 220
e 34 243
e 34 266
e 35 51
e 35 61
e 35 89
e 35 114
e 35 130
e 35 142
e 35 153
e 35 168
e 35 180
e 35 224
e 35 238
e 35 245
e 35 257
e 35 269
e 36 37
e 36 38
e 36 39
e 36 40
e 36 41
e 36 42
e 36 43
e 36 44
e 36 45
e 36 46
e 36 47
e 36 48
e 36 49
e 36 50
e 36 51
e 36 52
e 36 62
e 36 76
e 36 90
e 36 115
e 36 131
e 36 143
e 36 154
e 36 169
e 36 181
e 36 195
e 36 225
e 37 38
e 37 39
e 37 40
e 37 41
e 37 42
e 37 43
e 37 44
e 37 45
e 37 46
e 37 47
e 37 48
e 37 49
e 37 50
e 37 51
e 37 53
e 37 116
e 37 155
e 37 170
e 37 196
e 37 212
e 37 226
e 37 246
e 37 258
e 38 39
e 38 40
e 38 41
e 38 42
e 38 43
e 38 44
e 38 45
e 38 46
e 38 47
e 38 48
e 38 49
e 38 50
e 38 51
e 38 63
e 38 78
e 38 92
e 38 118
e 38 132
e 38 144
e 38 197
e 38 227
e 38 259
e 39 40
e 39 41
e 39 42
e 39 43
e 39 44
e 39 45
e 39 46
e 39 47
e 39 48
e 39 49
e 39 50
e 39 51
e 39 65
e 39 79
e 39 103
e 39 119
e 39 146
e 39 158
e 39 173
e 39 183
e 39 199
e 39 214
e 39 229
e 39 248
e 40 41
e 40 42
e 40 43
e 40 44
e 40 45
e 40 46
e 40 47
e 40 48
e 40 49
e 40 50
e 40 51
e 40 66
e 40 80
e 40 93
e 40 104
e 40 120
e 40 133
e 40 147
e 40 159
e 40 184
e 40 200
e 40 230
e 40 240
e 41 42
e 41 43
e 41 44
e 41 45
e 41 46
e 41 47
e 41 48
e 41 49
e 41 50
e 41 51
e 41 54
e 41 81
e 41 94
e 41 121
e 41 134
e 41 148
e 41 160
e 41 174
e 41 185
e 41 201
e 41 261
e 42 43
e 42 44
e 42 45
e 42 46
e 42 47
e 42 48
e 42 49
e 42 50
e 42 51
e 42 82
e 42 95
e 42 161
e 42 202
e 42 215
e 42 231
e 42 241
e 42 249
e 42 262
e 43 44
e 43 45
e 43 46
e 43 47
e 43 48
e 43 49
e 43 50
e 43 51
e 43 56
e 43 186
e 43 203
e 43 217
e 43 242
e 43 250
e 44 45
e 44 46
e 44 47
e 44 48
e 44 49
e 44 50
e 44 51
e 44 69
e 44 98
e 44 106
e 44 123
e 44 137
e 44 150
e 44 176
e 44 188
e 44 205
e 44 263
e 45 46
e 45 47
e 45 48
e 45 49
e 45 50
e 45 51
e 45 70
e 45 83
e 45 107
e 45 124
e 45 163
e 45 177
e 45 189
e 45 206
e 45 219
e 45 234
e 45 252
e 45 264
e 46 47
e 46 48
e 46 49
e 46 50
e 46 51
e 46 57
e 46 71
e 46 84
e 46 108
e 46 125
e 46 138
e 46 178
e 46 190
e 46 207
e 46 235
e 46 253
e 46 265
e 47 48
e 47 49
e 47 50
e 47 51
e 47 85
e 47 109
e 47 126
e 47 139
e 47 164
e 47 208
e 47 220
e 47 243
e 47 266
e 48 49
e 48 50
e 48 51
e 48 58
e 48 72
e 48 86
e 48 99
e 48 110
e 48 127
e 48 140
e 48 151
e 48 165
e 48 191
e 48 209
e 48 236
e 48 244
e 48 254
e 49 50
e 49 51
e 49 59
e 49 73
e 49 87
e 49 100
e 49 111
e 49 141
e 49 192
e 49 210
e 49 221
e 49 237
e 49 255
e 49 267
e 50 51
e 50 74
e 50 88
e 50 101
e 50 112
e 50 128
e 50 152
e 50 166
e 50 193
e 50 211
e 50 222
e 50 268
e 51 61
e 51 89
e 51 114
e 51 130
e 51 142
e 51 153
e 51 168
e 51 180
e 51 224
e 51 238
e 51 245
e 51 257
e 51 269
e 52 53
e 52 54
e 52 55
e 52 56
e 52 57
e 52 58
e 52 59
e 52 60
e 52 61
e 52 62
e 52 76
e 52 90
e 52 115
e 52 131
e 52 143
e 52 154
e 52 169
e 52 181
e 52 195
e 52 225
e 53 54
e 53 55
e 53 56
e 53 57
e 53 58
e 53 59
e 53 60
e 53 61
e 53 116
e 53 155
e 53 170
e 53 196
e 53 212
e 53 226
e 53 246
e 53 258
e 54 55
e 54 56
e 54 57
e 54 58
e 54 59
e 54 60
e 54 61
e 54 81
e 54 94
e 54 121
e 54 134
e 54 148
e 54 160
e 54 174
e 54 185
e 54 201
e 54 261
e 55 56
e 55 57
e 55 58
e 55 59
e 55 60
e 55 61
e 55 67
e 55 96
e 55 105
e 55 122
e 55 135
e 55 149
e 55 175
e 55 216
e 55 232
e 56 57
e 56 58
e 56 59
e 56 60
e 56 61
e 56 186
e 56 203
e 56 217
e 56 242
e 56 250
e 57 58
e 57 59
e 57 60
e 57 61
e 57 71
e 57 84
e 57 108
e 57 125
e 57 138
e 57 178
e 57 190
e 57 207
e 57 235
e 57 253
e 57 265
e 58 59
e 58 60
e 58 61
e 58 72
e 58 86
e 58 99
e 58 110
e 58 127
e 58 140
e 58 151
e 58 165
e 58 191
e 58 209
e 58 236
e 58 244
e 58 254
e 59 60
e 59 61
e 59 73
e 59 87
e 59 100
e 59 111
e 59 141
e 59 192
e 59 210
e 59 221
e 59 237
e 59 255
e 59 267
e 60 61
e 60 75
e 60 102
e 60 113
e 60 129
e 60 167
e 60 179
e 60 194
e 60 223
e 60 256
e 61 89
e 61 114
e 61 130
e 61 142
e 61 153
e 61 168
e 61 180
e 61 224
e 61 238
e 61 245
e 61 257
e 61 269
e 62 63
e 62 64
e 62 65
e 62 66
e 62 67
e 62 68
e 62 69
e 62 70
e 62 71
e 62 72
e 62 73
e 62 74
e 62 75
e 62 76
e 62 90
e 62 115
e 62 131
e 62 143
e 62 154
e 62 169
e 62 181
e 62 195
e 62 225
e 63 64
e 63 65
e 63 66
e 63 67
e 63 68
e 63 69
e 63 70
e 63 71
e 63 72
e 63 73
e 63 74
e 63 75
e 63 78
e 63 92
e 63 118
e 63 132
e 63 144
e 63 197
e 63 227
e 63 259
e 64 65
e 64 66
e 64 67
e 64 68
e 64 69
e 64 70
e 64 71
e 64 72
e 64 73
e 64 74
e 64 75
e 64 145
e 64 157
e 64 172
e 64 198
e 64 213
e 64 228
e 64 239
e 64 247
e 64 260
e 65 66
e 65 67
e 65 68
e 65 69
e 65 70
e 65 71
e 65 72
e 65 73
e 65 74
e 65 75
e 65 79
e 65 103
e 65 119
e 65 146
e 65 158
e 65 173
e 65 183
e 65 199
e 65 214
e 65 229
e 65 248
e 66 67
e 66 68
e 66 69
e 66 70
e 66 71
e 66 72
e 66 73
e 66 74
e 66 75
e 66 80
e 66 93
e 66 104
e 66 120
e 66 133
e 66 147
e 66 159
e 66 184
e 66 200
e 66 230
e 66 240
e 67 68
e 67 69
e 67 70
e 67 71
e 67 72
e 67 73
e 67 74
e 67 75
e 67 96
e 67 105
e 67 122
e 67 135
e 67 149
e 67 175
e 67 216
e 67 232
e 68 69
e 68 70
e 68 71
e 68 72
e 68 73
e 68 74
e 68 75
e 68 97
e 68 136
e 68 162
e 68 187
e 68 204
e 68 218
e 68 233
e 68 251
e 69 70
e 69 71
e 69 72
e 69 73
e 69 74
e 69 75
e 69 98
e 69 106
e 69 123
e 69 137
e 69 150
e 69 176
e 69 188
e 69 205
e 69 263
e 70 71
e 70 72
e 70 73
e 70 74
e 70 75
e 70 83
e 70 107
e 70 124
e 70 163
e 70 177
e 70 189
e 70 206
e 70 219
e 70 234
e 70 252
e 70 264
e 71 72
e 71 73
e 71 74
e 71 75
e 71 84
e 71 108
e 71 125
e 71 138
e 71 178
e 71 190
e 71 207
e 71 235
e 71 253
e 71 265
e 72 73
e 72 74
e 72 75
e 72 86
e 72 99
e 72 110
e 72 127
e 72 140
e 72 151
e 72 165
e 72 191
e 72 209
e 72 236
e 72 244
e 72 254
e 73 74
e 73 75
e 73 87
e 73 100
e 73 111
e 73 141
e 73 192
e 73 210
e 73 221
e 73 237
e 73 255
e 73 267
e 74 75
e 74 88
e 74 101
e 74 112
e 74 128
e 74 152
e 74 166
e 74 193
e 74 211
e 74 222
e 74 268
e 75 102
e 75 113
e 75 129
e 75 167
e 75 179
e 75 194
e 75 223
e 75 256
e 76 77
e 76 78
e 76 79
e 76 80
e 76 81
e 76 82
e 76 83
e 76 84
e 76 85
e 76 86
e 76 87
e 76 88
e 76 89
e 76 90
e 76 115
e 76 131
e 76 143
e 76 154
e 76 169
e 76 181
e 76 195
e 76 225
e 77 78
e 77 79
e 77 80
e 77 81
e 77 82
e 77 83
e 77 84
e 77 85
e 77 86
e 77 87
e 77 88
e 77 89
e 77 91
e 77 117
e 77 156
e 77 171
e 77 182
e 78 79
e 78 80
e 78 81
e 78 82
e 78 83
e 78 84
e 78 85
e 78 86
e 78 87
e 78 88
e 78 89
e 78 92
e 78 118
e 78 132
e 78 144
e 78 197
e 78 227
e 78 259
e 79 80
e 79 81
e 79 82
e 79 83
e 79 84
e 79 85
e 79 86
e 79 87
e 79 88
e 79 89
e 79 103
e 79 119
e 79 146
e 79 158
e 79 173
e 79 183
e 79 199
e 79 214
e 79 229
e 79 248
e 80 81
e 80 82
e 80 83
e 80 84
e 80 85
e 80 86
e 80 87
e 80 88
e 80 89
e 80 93
e 80 104
e 80 120
e 80 133
e 80 147
e 80 159
e 80 184
e 80 200
e 80 230
e 80 240
e 81 82
e 81 83
e 81 84
e 81 85
e 81 86
e 81 87
e 81 88
e 81 89
e 81 94
e 81 121
e 81 134
e 81 148
e 81 160
e 81 174
e 81 185
e 81 201
e 81 261
e 82 83
e 82 84
e 82 85
e 82 86
e 82 87
e 82 88
e 82 89
e 82 95
e 82 161
e 82 202
e 82 215
e 82 231
e 82 241
e 82 249
e 82 262
e 83 84
e 83 85
e 83 86
e 83 87
e 83 88
e 83 89
e 83 107
e 83 124
e 83 163
e 83 177
e 83 189
e 83 206
e 83 219
e 83 234
e 83 252
e 83 264
e 84 85
e 84 86
e 84 87
e 84 88
e 84 89
e 84 108
e 84 125
e 84 138
e 84 178
e 84 190
e 84 207
e 84 235
e 84 253
e 84 265
e 85 86
e 85 87
e 85 88
e 85 89
e 85 109
e 85 126
e 85 139
e 85 164
e 85 208
e 85 220
e 85 243
e 85 266
e 86 87
e 86 88
e 86 89
e 86 99
e 86 110
e 86 127
e 86 140
e 86 151
e 86 165
e 86 191
e 86 209
e 86 236
e 86 244
e 86 254
e 87 88
e 87 89
e 87 100
e 87 111
e 87 141
e 87 192
e 87 210
e 87 221
e 87 237
e 87 255
e 87 267
e 88 89
e 88 101
e 88 112
e 88 128
e 88 152
e 88 166
e 88 193
e 88 211
e 88 222
e 88 268
e 89 114
e 89 130
e 89 142
e 89 153
e 89 168
e 89 180
e 89 224
e 89 238
e 89 245
e 89 257
e 89 269
e 90 91
e 90 92
e 90 93
e 90 94
e 90 95
e 90 96
e 90 97
e 90 98
e 90 99
e 90 100
e 90 101
e 90 102
e 90 115
e 90 131
e 90 143
e 90 154
e 90 169
e 90 181
e 90 195
e 90 225
e 91 92
e 91 93
e 91 94
e 91 95
e 91 96
e 91 97
e 91 98
e 91 99
e 91 100
e 91 101
e 91 102
e 91 117
e 91 156
e 91 171
e 91 182
e 92 93
e 92 94
e 92 95
e 92 96
e 92 97
e 92 98
e 92 99
e 92 100
e 92 101
e 92 102
e 92 118
e 92 132
e 92 144
e 92 197
e 92 227
e 92 259
e 93 94
e 93 95
e 93 96
e 93 97
e 93 98
e 93 99
e 93 100
e 93 101
e 93 102
e 93 104
e 93 120
e 93 133
e 93 147
e 93 159
e 93 184
e 93 200
e 93 230
e 93 240
e 94 95
e 94 96
e 94 97
e 94 98
e 94 99
e 94 100
e 94 101
e 94 102
e 94 121
e 94 134
e 94 148
e 94 160
e 94 174
e 94 185
e 94 201
e 94 261
e 95 96
e 95 97
e 95 98
e 95 99
e 95 100
e 95 101
e 95 102
e 95 161
e 95 202
e 95 215
e 95 231
e 95 241
e 95 249
e 95 262
e 96 97
e 96 98
e 96 99
e 96 100
e 96 101
e 96 102
e 96 105
e 96 122
e 96 135
e 96 149
e 96 175
e 96 216
e 96 232
e 97 98
e 97 99
e 97 100
e 97 101
e 97 102
e 97 136
e 97 162
e 97 187
e 97 204
e 97 218
e 97 233
e 97 251
e 98 99
e 98 100
e 98 101
e 98 102
e 98 106
e 98 123
e 98 137
e 98 150
e 98 176
e 98 188
e 98 205
e 98 263
e 99 100
e 99 101
e 99 102
e 99 110
e 99 127
e 99 140
e 99 151
e 99 165
e 99 191
e 99 209
e 99 236
e 99 244
e 99 254
e 100 101
e 100 102
e 100 111
e 100 141
e 100 192
e 100 210
e 100 221
e 100 237
e 100 255
e 100 267
e 101 102
e 101 112
e 101 128
e 101 152
e 101 166
e 101 193
e 101 211
e 101 222
e 101 268
e 102 113
e 102 129
e 102 167
e 102 179
e 102 194
e 102 223
e 102 256
e 103 104
e 103 105
e 103 106
e 103 107
e 103 108
e 103 109
e 103 110
e 103 111
e 103 112
e 103 113
e 103 114
e 103 119
e 103 146
e 103 158
e 103 173
e 103 183
e 103 199
e 103 214
e 103 229
e 103 248
e 104 105
e 104 106
e 104 107
e 104 108
e 104 109
e 104 110
e 104 111
e 104 112
e 104 113
e 104 114
e 104 120
e 104 133
e 104 147
e 104 159
e 104 184
e 104 200
e 104 230
e 104 240
e 105 106
e 105 107
e 105 108
e 105 109
e 105 110
e 105 111
e 105 112
e 105 113
e 105 114
e 105 122
e 105 135
e 105 149
e 105 175
e 105 216
e 105 232
e 106 107
e 106 108
e 106 109
e 106 110
e 106 111
e 106 112
e 106 113
e 106 114
e 106 123
e 106 137
e 106 150
e 106 176
e 106 188
e 106 205
e 106 263
e 107 108
e 107 109
e 107 110
e 107 111
e 107 112
e 107 113
e 107 114
e 107 124
e 107 163
e 107 177
e 107 189
e 107 206
e 107 219
e 107 234
e 107 252
e 107 264
e 108 109
e 108 110
e 108 111
e 108 112
e 108 113
e 108 114
e 108 125
e 108 138
e 108 178
e 108 190
e 108 207
e 108 235
e 108 253
e 108 265
e 109 110
e 109 111
e 109 112
e 109 113
e 109 114
e 109 126
e 109 139
e 109 164
e 109 208
e 109 220
e 109 243
e 109 266
e 110 111
e 110 112
e 110 113
e 110 114
e 110 127
e 110 140
e 110 151
e 110 165
e 110 191
e 110 209
e 110 236
e 110 244
e 110 254
e 111 112
e 111 113
e 111 114
e 111 141
e 111 192
e 111 210
e 111 221
e 111 237
e 111 255
e 111 267
e 112 113
e 112 114
e 112 128
e 112 152
e 112 166
e 112 193
e 112 211
e 112 222
e 112 268
e 113 114
e 113 129
e 113 167
e 113 179
e 113 194
e 113 223
e 113 256
e 114 130
e 114 142
e 114 153
e 114 168
e 114 180
e 114 224
e 114 238
e 114 245
e 114 257
e 114 269
e 115 116
e 115 117
e 115 118
e 115 119
e 115 120
e 115 121
e 115 122
e 115 123
e 115 124
e 115 125
e 115 126
e 115 127
e 115 128
e 115 129
e 115 130
e 115 131
e 115 143
e 115 154
e 115 169
e 115 181
e 115 195
e 115 225
e 116 117
e 116 118
e 116 119
e 116 120
e 116 121
e 116 122
e 116 123
e 116 124
e 116 125
e 116 126
e 116 127
e 116 128
e 116 129
e 116 130
e 116 155
e 116 170
e 116 196
e 116 212
e 116 226
e 116 246
e 116 258
e 117 118
e 117 119
e 117 120
e 117 121
e 117 122
e 117 123
e 117 124
e 117 125
e 117 126
e 117 127
e 117 128
e 117 129
e 117 130
e 117 156
e 117 171
e 117 182
e 118 119
e 118 120
e 118 121
e 118 122
e 118 123
e 118 124
e 118 125
e 118 126
e 118 127
e 118 128
e 118 129
e 118 130
e 118 132
e 118 144
e 118 197
e 118 227
e 118 259
e 119 120
e 119 121
e 119 122
e 119 123
e 119 124
e 119 125
e 119 126
e 119 127
e 119 128
e 119 129
e 119 130
e 119 146
e 119 158
e 119 173
e 119 183
e 119 199
e 119 214
e 119 229
e 119 248
e 120 121
e 120 122
e 120 123
e 120 124
e 120 125
e 120 126
e 120 127
e 120 128
e 120 129
e 120 130
e 120 133
e 120 147
e 120 159
e 120 184
e 120 200
e 120 230
e 120 240
e 121 122
e 121 123
e 121 124
e 121 125
e 121 126
e 121 127
e 121 128
e 121 129
e 121 130
e 121 134
e 121 148
e 121 160
e 121 174
e 121 185
e 121 201
e 121 261
e 122 123
e 122 124
e 122 125
e 122 126
e 122 127
e 122 128
e 122 129
e 122 130
e 122 135
e 122 149
e 122 175
e 122 216
e 122 232
e 123 124
e 123 125
e 123 126
e 123 127
e 123 128
e 123 129
e 123 130
e 123 137
e 123 150
e 123 176
e 123 188
e 123 205
e 123 263
e 124 125
e 124 126
e 124 127
e 124 128
e 124 129
e 124 130
e 124 163
e 124 177
e 124 189
e 124 206
e 124 219
e 124 234
e 124 252
e 124 264
e 125 126
e 125 127
e 125 128
e 125 129
e 125 130
e 125 138
e 125 178
e 125 190
e 125 207
e 125 235
e 125 253
e 125 265
e 126 127
e 126 128
e 126 129
e 126 130
e 126 139
e 126 164
e 126 208
e 126 220
e 126 243
e 126 266
e 127 128
e 127 129
e 127 130
e 127 140
e 127 151
e 127 165
e 127 191
e 127 209
e 127 236
e 127 244
e 127 254
e 128 129
e 128 130
e 128 152
e 128 166
e 128 193
e 128 211
e 128 222
e 128 268
e 129 130
e 129 167
e 129 179
e 129 194
e 129 223
e 129 256
e 130 142
e 130 153
e 130 168
e 130 180
e 130 224
e 130 238
e 130 245
e 130 257
e 130 269
e 131 132
e 131 133
e 131 134
e 131 135
e 131 136
e 131 137
e 131 138
e 131 139
e 131 140
e 131 141
e 131 142
e 131 143
e 131 154
e 131 169
e 131 181
e 131 195
e 131 225
e 132 133
e 132 134
e 132 135
e 132 136
e 132 137
e 132 138
e 132 139
e 132 140
e 132 141
e 132 142
e 132 144
e 132 197
e 132 227
e 132 259
e 133 134
e 133 135
e 133 136
e 133 137
e 133 138
e 133 139
e 133 140
e 133 141
e 133 142
e 133 147
e 133 159
e 133 184
e 133 200
e 133 230
e 133 240
e 134 135
e 134 136
e 134 137
e 134 138
e 134 139
e 134 140
e 134 141
e 134 142
e 134 148
e 134 160
e 134 174
e 134 185
e 134 201
e 134 261
e 135 136
e 135 137
e 135 138
e 135 139
e 135 140
e 135 141
e 135 142
e 135 149
e 135 175
e 135 216
e 135 232
e 136 137
e 136 138
e 136 139
e 136 140
e 136 141
e 136 142
e 136 162
e 136 187
e 136 204
e 136 218
e 136 233
e 136 251
e 137 138
e 137 139
e 137 140
e 137 141
e 137 142
e 137 150
e 137 176
e 137 188
e 137 205
e 137 263
e 138 139
e 138 140
e 138 141
e 138 142
e 138 178
e 138 190
e 138 207
e 138 235
e 138 253
e 138 265
e 139 140
e 139 141
e 139 142
e 139 164
e 139 208
e 139 220
e 139 243
e 139 266
e 140 141
e 140 142
e 140 151
e 140 165
e 140 191
e 140 209
e 140 236
e 140 244
e 140 254
e 141 142
e 141 192
e 141 210
e 141 221
e 141 237
e 141 255
e 141 267
e 142 153
e 142 168
e 142 180
e 142 224
e 142 238
e 142 245
e 142 257
e 142 269
e 143 144
e 143 145
e 143 146
e 143 147
e 143 148
e 143 149
e 143 150
e 143 151
e 143 152
e 143 153
e 143 154
e 143 169
e 143 181
e 143 195
e 143 225
e 144 145
e 144 146
e 144 147
e 144 148
e 144 149
e 144 150
e 144 151
e 144 152
e 144 153
e 144 197
e 144 227
e 144 259
e 145 146
e 145 147
e 145 148
e 145 149
e 145 150
e 145 151
e 145 152
e 145 153
e 145 157
e 145 172
e 145 198
e 145 213
e 145 228
e 145 239
e 145 247
e 145 260
e 146 147
e 146 148
e 146 149
e 146 150
e 146 151
e 146 152
e 146 153
e 146 158
e 146 173
e 146 183
e 146 199
e 146 214
e 146 229
e 146 248
e 147 148
e 147 149
e 147 150
e 147 151
e 147 152
e 147 153
e 147 159
e 147 184
e 147 200
e 147 230
e 147 240
e 148 149
e 148 150
e 148 151
e 148 152
e 148 153
e 148 160
e 148 174
e 148 185
e 148 201
e 148 261
e 149 150
e 149 151
e 149 152
e 149 153
e 149 175
e 149 216
e 149 232
e 150 151
e 150 152
e 150 153
e 150 176
e 150 188
e 150 205
e 150 263
e 151 152
e 151 153
e 151 165
e 151 191
e 151 209
e 151 236
e 151 244
e 151 254
e 152 153
e 152 166
e 152 193
e 152 211
e 152 222
e 152 268
e 153 168
e 153 180
e 153 224
e 153 238
e 153 245
e 153 257
e 153 269
e 154 155
e 154 156
e 154 157
e 154 158
e 154 159
e 154 160
e 154 161
e 154 162
e 154 163
e 154 164
e 154 165
e 154 166
e 154 167
e 154 168
e 154 169
e 154 181
e 154 195
e 154 225
e 155 156
e 155 157
e 155 158
e 155 159
e 155 160
e 155 161
e 155 162
e 155 163
e 155 164
e 155 165
e 155 166
e 155 167
e 155 168
e 155 170
e 155 196
e 155 212
e 155 226
e 155 246
e 155 258
e 156 157
e 156 158
e 156 159
e 156 160
e 156 161
e 156 162
e 156 163
e 156 164
e 156 165
e 156 166
e 156 167
e 156 168
e 156 171
e 156 182
e 157 158
e 157 159
e 157 160
e 157 161
e 157 162
e 157 163
e 157 164
e 157 165
e 157 166
e 157 167
e 157 168
e 157 172
e 157 198
e 157 213
e 157 228
e 157 239
e 157 247
e 157 260
e 158 159
e 158 160
e 158 161
e 158 162
e 158 163
e 158 164
e 158 165
e 158 166
e 158 167
e 158 168
e 158 173
e 158 183
e 158 199
e 158 214
e 158 229
e 158 248
e 159 160
e 159 161
e 159 162
e 159 163
e 159 164
e 159 165
e 159 166
e 159 167
e 159 168
e 159 184
e 159 200
e 159 230
e 159 240
e 160 161
e 160 162
e 160 163
e 160 164
e 160 165
e 160 166
e 160 167
e 160 168
e 160 174
e 160 185
e 160 201
e 160 261
e 161 162
e 161 163
e 161 164
e 161 165
e 161 166
e 161 167
e 161 168
e 161 202
e 161 215
e 161 231
e 161 241
e 161 249
e 161 262
e 162 163
e 162 164
e 162 165
e 162 166
e 162 167
e 162 168
e 162 187
e 162 204
e 162 218
e 162 233
e 162 251
e 163 164
e 163 165
e 163 166
e 163 167
e 163 168
e 163 177
e 163 189
e 163 206
e 163 219
e 163 234
e 163 252
e 163 264
e 164 165
e 164 166
e 164 167
e 164 168
e 164 208
e 164 220
e 164 243
e 164 266
e 165 166
e 165 167
e 165 168
e 165 191
e 165 209
e 165 236
e 165 244
e 165 254
e 166 167
e 166 168
e 166 193
e 166 211
e 166 222
e 166 268
e 167 168
e 167 179
e 167 194
e 167 223
e 167 256
e 168 180
e 168 224
e 168 238
e 168 245
e 168 257
e 168 269
e 169 170
e 169 171
e 169 172
e 169 173
e 169 174
e 169 175
e 169 176
e 169 177
e 169 178
e 169 179
e 169 180
e 169 181
e 169 195
e 169 225
e 170 171
e 170 172
e 170 173
e 170 174
e 170 175
e 170 176
e 170 177
e 170 178
e 170 179
e 170 180
e 170 196
e 170 212
e 170 226
e 170 246
e 170 258
e 171 172
e 171 173
e 171 174
e 171 175
e 171 176
e 171 177
e 171 178
e 171 179
e 171 180
e 171 182
e 172 173
e 172 174
e 172 175
e 172 176
e 172 177
e 172 178
e 172 179
e 172 180
e 172 198
e 172 213
e 172 228
e 172 239
e 172 247
e 172 260
e 173 174
e 173 175
e 173 176
e 173 177
e 173 178
e 173 179
e 173 180
e 173 183
e 173 199
e 173 214
e 173 229
e 173 248
e 174 175
e 174 176
e 174 177
e 174 178
e 174 179
e 174 180
e 174 185
e 174 201
e 174 261
e 175 176
e 175 177
e 175 178
e 175 179
e 175 180
e 175 216
e 175 232
e 176 177
e 176 178
e 176 179
e 176 180
e 176 188
e 176 205
e 176 263
e 177 178
e 177 179
e 177 180
e 177 189
e 177 206
e 177 219
e 177 234
e 177 252
e 177 264
e 178 179
e 178 180
e 178 190
e 178 207
e 178 235
e 178 253
e 178 265
e 179 180
e 179 194
e 179 223
e 179 256
e 180 224
e 180 238
e 180 245
e 180 257
e 180 269
e 181 182
e 181 183
e 181 184
e 181 185
e 181 186
e 181 187
e 181 188
e 181 189
e 181 190
e 181 191
e 181 192
e 181 193
e 181 194
e 181 195
e 181 225
e 182 183
e 182 184
e 182 185
e 182 186
e 182 187
e 182 188
e 182 189
e 182 190
e 182 191
e 182 192
e 182 193
e 182 194
e 183 184
e 183 185
e 183 186
e 183 187
e 183 188
e 183 189
e 183 190
e 183 191
e 183 192
e 183 193
e 183 194
e 183 199
e 183 214
e 183 229
e 183 248
e 184 185
e 184 186
e 184 187
e 184 188
e 184 189
e 184 190
e 184 191
e 184 192
e 184 193
e 184 194
e 184 200
e 184 230
e 184 240
e 185 186
e 185 187
e 185 188
e 185 189
e 185 190
e 185 191
e 185 192
e 185 193
e 185 194
e 185 201
e 185 261
e 186 187
e 186 188
e 186 189
e 186 190
e 186 191
e 186 192
e 186 193
e 186 194
e 186 203
e 186 217
e 186 242
e 186 250
e 187 188
e 187 189
e 187 190
e 187 191
e 187 192
e 187 193
e 187 194
e 187 204
e 187 218
e 187 233
e 187 251
e 188 189
e 188 190
e 188 191
e 188 192
e 188 193
e 188 194
e 188 205
e 188 263
e 189 190
e 189 191
e 189 192
e 189 193
e 189 194
e 189 206
e 189 219
e 189 234
e 189 252
e 189 264
e 190 191
e 190 192
e 190 193
e 190 194
e 190 207
e 190 235
e 190 253
e 190 265
e 191 192
e 191 193
e 191 194
e 191 209
e 191 236
e 191 244
e 191 254
e 192 193
e 192 194
e 192 210
e 192 221
e 192 237
e 192 255
e 192 267
e 193 194
e 193 211
e 193 222
e 193 268
e 194 223
e 194 256
e 195 196
e 195 197
e 195 198
e 195 199
e 195 200
e 195 201
e 195 202
e 195 203
e 195 204
e 195 205
e 195 206
e 195 207
e 195 208
e 195 209
e 195 210
e 195 211
e 195 225
e 196 197
e 196 198
e 196 199
e 196 200
e 196 201
e 196 202
e 196 203
e 196 204
e 196 205
e 196 206
e 196 207
e 196 208
e 196 209
e 196 210
e 196 211
e 196 212
e 196 226
e 196 246
e 196 258
e 197 198
e 197 199
e 197 200
e 197 201
e 197 202
e 197 203
e 197 204
e 197 205
e 197 206
e 197 207
e 197 208
e 197 209
e 197 210
e 197 211
e 197 227
e 197 259
e 198 199
e 198 200
e 198 201
e 198 202
e 198 203
e 198 204
e 198 205
e 198 206
e 198 207
e 198 208
e 198 209
e 198 210
e 198 211
e 198 213
e 198 228
e 198 239
e 198 247
e 198 260
e 199 200
e 199 201
e 199 202
e 199 203
e 199 204
e 199 205
e 199 206
e 199 207
e 199 208
e 199 209
e 199 210
e 199 211
e 199 214
e 199 229
e 199 248
e 200 201
e 200 202
e 200 203
e 200 204
e 200 205
e 200 206
e 200 207
e 200 208
e 200 209
e 200 210
e 200 211
e 200 230
e 200 240
e 201 202
e 201 203
e 201 204
e 201 205
e 201 206
e 201 207
e 201 208
e 201 209
e 201 210
e 201 211
e 201 261
e 202 203
e 202 204
e 202 205
e 202 206
e 202 207
e 202 208
e 202 209
e 202 210
e 202 211
e 202 215
e 202 231
e 202 241
e 202 249
e 202 262
e 203 204
e 203 205
e 203 206
e 203 207
e 203 208
e 203 209
e 203 210
e 203 211
e 203 217
e 203 242
e 203 250
e 204 205
e 204 206
e 204 207
e 204 208
e 204 209
e 204 210
e 204 211
e 204 218
e 204 233
e 204 251
e 205 206
e 205 207
e 205 208
e 205 209
e 205 210
e 205 211
e 205 263
e 206 207
e 206 208
e 206 209
e 206 210
e 206 211
e 206 219
e 206 234
e 206 252
e 206 264
e 207 208
e 207 209
e 207 210
e 207 211
e 207 235
e 207 253
e 207 265
e 208 209
e 208 210
e 208 211
e 208 220
e 208 243
e 208 266
e 209 210
e 209 211
e 209 236
e 209 244
e 209 254
e 210 211
e 210 221
e 210 237
e 210 255
e 210 267
e 211 222
e 211 268
e 212 213
e 212 214
e 212 215
e 212 216
e 212 217
e 212 218
e 212 219
e 212 220
e 212 221
e 212 222
e 212 223
e 212 224
e 212 226
e 212 246
e 212 258
e 213 214
e 213 215
e 213 216
e 213 217
e 213 218
e 213 219
e 213 220
e 213 221
e 213 222
e 213 223
e 213 224
e 213 228
e 213 239
e 213 247
e 213 260
e 214 215
e 214 216
e 214 217
e 214 218
e 214 219
e 214 220
e 214 221
e 214 222
e 214 223
e 214 224
e 214 229
e 214 248
e 215 216
e 215 217
e 215 218
e 215 219
e 215 220
e 215 221
e 215 222
e 215 223
e 215 224
e 215 231
e 215 241
e 215 249
e 215 262
e 216 217
e 216 218
e 216 219
e 216 220
e 216 221
e 216 222
e 216 223
e 216 224
e 216 232
e 217 218
e 217 219
e 217 220
e 217 221
e 217 222
e 217 223
e 217 224
e 217 242
e 217 250
e 218 219
e 218 220
e 218 221
e 218 222
e 218 223
e 218 224
e 218 233
e 218 251
e 219 220
e 219 221
e 219 222
e 219 223
e 219 224
e 219 234
e 219 252
e 219 264
e 220 221
e 220 222
e 220 223
e 220 224
e 220 243
e 220 266
e 221 222
e 221 223
e 221 224
e 221 237
e 221 255
e 221 267
e 222 223
e 222 224
e 222 268
e 223 224
e 223 256
e 224 238
e 224 245
e 224 257
e 224 269
e 225 226
e 225 227
e 225 228
e 225 229
e 225 230
e 225 231
e 225 232
e 225 233
e 225 234
e 225 235
e 225 236
e 225 237
e 225 238
e 226 227
e 226 228
e 226 229
e 226 230
e 226 231
e 226 232
e 226 233
e 226 234
e 226 235
e 226 236
e 226 237
e 226 238
e 226 246
e 226 258
e 227 228
e 227 229
e 227 230
e 227 231
e 227 232
e 227 233
e 227 234
e 227 235
e 227 236
e 227 237
e 227 238
e 227 259
e 228 229
e 228 230
e 228 231
e 228 232
e 228 233
e 228 234
e 228 235
e 228 236
e 228 237
e 228 238
e 228 239
e 228 247
e 228 260
e 229 230
e 229 231
e 229 232
e 229 233
e 229 234
e 229 235
e 229 236
e 229 237
e 229 238
e 229 248
e 230 231
e 230 232
e 230 233
e 230 234
e 230 235
e 230 236
e 230 237
e 230 238
e 230 240
e 231 232
e 231 233
e 231 234
e 231 235
e 231 236
e 231 237
e 231 238
e 231 241
e 231 249
e 231 262
e 232 233
e 232 234
e 232 235
e 232 236
e 232 237
e 232 238
e 233 234
e 233 235
e 233 236
e 233 237
e 233 238
e 233 251
e 234 235
e 234 236
e 234 237
e 234 238
e 234 252
e 234 264
e 235 236
e 235 237
e 235 238
e 235 253
e 235 265
e 236 237
e 236 238
e 236 244
e 236 254
e 237 238
e 237 255
e 237 267
e 238 245
e 238 257
e 238 269
e 239 240
e 239 241
e 239 242
e 239 243
e 239 244
e 239 245
e 239 247
e 239 260
e 240 241
e 240 242
e 240 243
e 240 244
e 240 245
e 241 242
e 241 243
e 241 244
e 241 245
e 241 249
e 241 262
e 242 243
e 242 244
e 242 245
e 242 250
e 243 244
e 243 245
e 243 266
e 244 245
e 244 254
e 245 257
e 245 269
e 246 247
e 246 248
e 246 249
e 246 250
e 246 251
e 246 252
e 246 253
e 246 254
e 246 255
e 246 256
e 246 257
e 246 258
e 247 248
e 247 249
e 247 250
e 247 251
e 247 252
e 247 253
e 247 254
e 247 255
e 247 256
e 247 257
e 247 260
e 248 249
e 248 250
e 248 251
e 248 252
e 248 253
e 248 254
e 248 255
e 248 256
e 248 257
e 249 250
e 249 251
e 249 252
e 249 253
e 249 254
e 249 255
e 249 256
e 249 257
e 249 262
e 250 251
e 250 252
e 250 253
e 250 254
e 250 255
e 250 256
e 250 257
e 251 252
e 251 253
e 251 254
e 251 255
e 251 256
e 251 257
e 252 253
e 252 254
e 252 255
e 252 256
e 252 257
e 252 264
e 253 254
e 253 255
e 253 256
e 253 257
e 253 265
e 254 255
e 254 256
e 254 257
e 255 256
e 255 257
e 255 267
e 256 257
e 257 269
e 258 259
e 258 260
e 258 261
e 258 262
e 258 263
e 258 264
e 258 265
e 258 266
e 258 267
e 258 268
e 258 269
e 259 260
e 259 261
e 259 262
e 259 263
e 259 264
e 259 265
e 259 266
e 259 267
e 259 268
e 259 269
e 260 261
e 260 262
e 260 263
e 260 264
e 260 265
e 260 266
e 260 267
e 260 268
e 260 269
e 261 262
e 261 263
e 261 264
e 261 265
e 261 266
e 261 267
e 261 268
e 261 269
e 262 263
e 262 264
e 262 265
e 262 266
e 262 267
e 262 268
e 262 269
e 263 264
e 263 265
e 263 266
e 263 267
e 263 268
e 263 269
e 264 265
e 264 266
e 264 267
e 264 268
e 264 269
e 265 266
e 265 267
e 265 268
e 265 269
e 266 267
e 266 268
e 266 269
e 267 268
e 267 269
e 268 269
